(set-logic HORN)
(declare-fun state (Int Int (Array Int Int) (Array Int Int) Int Int Int Int Int Int Bool Bool Int Bool Bool Bool Bool Bool Int Int (Array Int Int) (Array Int Int) Int Int (Array Int Int) (Array Int Int) Int (Array Int Int) Int (Array Int Int) Int Int Int Int) Bool)
(assert (forall ((|main@%a.0.i_0_1| Int) (|.y.9| Int) (|main@%shadow.mem1.0_0_1| (Array Int Int)) (|main@%shadow.mem.0_0_1| (Array Int Int)) (|main@%b.0.i_0_1| Int) (|main@%c.0.i_0_1| Int) (|main@%tmp14.i_0_1| Int) (|main@%tmp17.i_0_1| Int) (|@nd_char_0_2| Int) (|main@%tmp2.i_0_1| Int) (|.loc.10| Bool) (|.loc.11| Bool) (|main@%tmp24.i_0| Int) (|main@%tmp31.i_0| Bool) (|main@bb23.i_0| Bool) (|main@bb18.i_0_0| Bool) (|main@bb40.i_0| Bool) (|main@bb32.i_0| Bool) (|main@%b.1.i_1| Int) (|main@%tmp39.i_0| Int) (|main@%shadow.mem.1_1| (Array Int Int)) (|main@%_5_0| (Array Int Int)) (|main@%c.1.i_0| Int) (|main@%tmp47.i_0| Int) (|main@%shadow.mem1.1_0| (Array Int Int)) (|main@%_6_0| (Array Int Int)) (|main@%c.1.i_1| Int) (|main@%shadow.mem1.1_1| (Array Int Int)) (|main@%b.1.i_0| Int) (|main@%shadow.mem.1_0| (Array Int Int)) (|main@%tmp37.i_0| Int) (|main@%tmp45.i_0| Int) (|main@%tmp58.i_0| Int) (|main@%tmp58.i_0_0| Int) (|.loc.18| Bool) (|.x.19| Int) (|.loc.19| Bool) (|main@%x.0.i_1| Int) (|.x.18| (Array Int Int)) (|.x.20| Int) (|.y.16| Int) (|.y.17| Int) (|.y.15| Int) (|.y.12| Int) (|.y.14| (Array Int Int)) (|.y.13| Int) (|.xtv.1| Int) (|.xtv.2| Bool) (|.xtv.3| Bool) (|.xtv.4| Bool) (|.xtv.5| Bool) (|.xtv.6| Bool) (|.xtv.7| Int) (|.xtv.8| Int) (|.xtv.9| (Array Int Int)) (|.xtv.10| (Array Int Int)) (|.xtv.11| Int) (|.xtv.12| Int) (|.xtv.13| (Array Int Int)) (|.xtv.14| (Array Int Int)) (|.xtv.15| Int) (|.xtv.16| (Array Int Int)) (|.xtv.17| Int) (|.xtv.18| (Array Int Int)) (|.xtv.19| Int) (|.xtv.20| Int) (|.xtv.21| Int) (|.xpv.1| Int)) (=> (and (not .loc.10) (not .loc.11)) (state |main@%a.0.i_0_1| |.y.9| |main@%shadow.mem1.0_0_1| |main@%shadow.mem.0_0_1| |main@%b.0.i_0_1| |main@%c.0.i_0_1| |main@%tmp14.i_0_1| |main@%tmp17.i_0_1| |@nd_char_0_2| |main@%tmp2.i_0_1| |.loc.10| |.loc.11| |main@%tmp24.i_0| |main@%tmp31.i_0| |main@bb23.i_0| |main@bb18.i_0_0| |main@bb40.i_0| |main@bb32.i_0| |main@%b.1.i_1| |main@%tmp39.i_0| |main@%shadow.mem.1_1| |main@%_5_0| |main@%c.1.i_0| |main@%tmp47.i_0| |main@%shadow.mem1.1_0| |main@%_6_0| |main@%c.1.i_1| |main@%shadow.mem1.1_1| |main@%b.1.i_0| |main@%shadow.mem.1_0| |main@%tmp37.i_0| |main@%tmp45.i_0| |main@%tmp58.i_0| |main@%tmp58.i_0_0|))))
(assert (forall ((|main@%a.0.i_0_1| Int) (|.y.9| Int) (|main@%shadow.mem1.0_0_1| (Array Int Int)) (|main@%shadow.mem.0_0_1| (Array Int Int)) (|main@%b.0.i_0_1| Int) (|main@%c.0.i_0_1| Int) (|main@%tmp14.i_0_1| Int) (|main@%tmp17.i_0_1| Int) (|@nd_char_0_2| Int) (|main@%tmp2.i_0_1| Int) (|.loc.10| Bool) (|.loc.11| Bool) (|main@%tmp24.i_0| Int) (|main@%tmp31.i_0| Bool) (|main@bb23.i_0| Bool) (|main@bb18.i_0_0| Bool) (|main@bb40.i_0| Bool) (|main@bb32.i_0| Bool) (|main@%b.1.i_1| Int) (|main@%tmp39.i_0| Int) (|main@%shadow.mem.1_1| (Array Int Int)) (|main@%_5_0| (Array Int Int)) (|main@%c.1.i_0| Int) (|main@%tmp47.i_0| Int) (|main@%shadow.mem1.1_0| (Array Int Int)) (|main@%_6_0| (Array Int Int)) (|main@%c.1.i_1| Int) (|main@%shadow.mem1.1_1| (Array Int Int)) (|main@%b.1.i_0| Int) (|main@%shadow.mem.1_0| (Array Int Int)) (|main@%tmp37.i_0| Int) (|main@%tmp45.i_0| Int) (|main@%tmp58.i_0| Int) (|main@%tmp58.i_0_0| Int) (|.loc.18| Bool) (|.x.19| Int) (|.loc.19| Bool) (|main@%x.0.i_1| Int) (|.x.18| (Array Int Int)) (|.x.20| Int) (|.y.16| Int) (|.y.17| Int) (|.y.15| Int) (|.y.12| Int) (|.y.14| (Array Int Int)) (|.y.13| Int) (|.xtv.1| Int) (|.xtv.2| Bool) (|.xtv.3| Bool) (|.xtv.4| Bool) (|.xtv.5| Bool) (|.xtv.6| Bool) (|.xtv.7| Int) (|.xtv.8| Int) (|.xtv.9| (Array Int Int)) (|.xtv.10| (Array Int Int)) (|.xtv.11| Int) (|.xtv.12| Int) (|.xtv.13| (Array Int Int)) (|.xtv.14| (Array Int Int)) (|.xtv.15| Int) (|.xtv.16| (Array Int Int)) (|.xtv.17| Int) (|.xtv.18| (Array Int Int)) (|.xtv.19| Int) (|.xtv.20| Int) (|.xtv.21| Int) (|.xpv.1| Int)) (=> (and (state |main@%a.0.i_0_1| |.y.9| |main@%shadow.mem1.0_0_1| |main@%shadow.mem.0_0_1| |main@%b.0.i_0_1| |main@%c.0.i_0_1| |main@%tmp14.i_0_1| |main@%tmp17.i_0_1| |@nd_char_0_2| |main@%tmp2.i_0_1| |.loc.10| |.loc.11| |main@%tmp24.i_0| |main@%tmp31.i_0| |main@bb23.i_0| |main@bb18.i_0_0| |main@bb40.i_0| |main@bb32.i_0| |main@%b.1.i_1| |main@%tmp39.i_0| |main@%shadow.mem.1_1| |main@%_5_0| |main@%c.1.i_0| |main@%tmp47.i_0| |main@%shadow.mem1.1_0| |main@%_6_0| |main@%c.1.i_1| |main@%shadow.mem1.1_1| |main@%b.1.i_0| |main@%shadow.mem.1_0| |main@%tmp37.i_0| |main@%tmp45.i_0| |main@%tmp58.i_0| |main@%tmp58.i_0_0|) (let ((.def_44 (not .loc.10))) (let ((.def_45 (not .loc.11))) (let ((.def_68 (<= (to_int (* (/ 1 16777216) (to_real (* 16777216 main@%tmp2.i_0_1)))) main@%a.0.i_0_1))) (let ((.def_84 (<= main@%c.0.i_0_1 0))) (let ((.def_120 (not .loc.19))) (let ((.def_134 (and main@bb23.i_0 main@bb18.i_0_0))) (let ((.def_139 (not main@bb23.i_0))) (let ((.def_145 (not main@bb40.i_0))) (let ((.def_149 (<= main@%tmp17.i_0_1 0))) (let ((.def_165 (not main@bb32.i_0))) (let ((.def_169 (<= main@%tmp14.i_0_1 0))) (let ((.def_218 (and main@bb23.i_0 main@bb32.i_0))) (let ((.def_222 (and main@bb23.i_0 main@bb40.i_0))) (or (or (and (and (not .loc.18) (and (= main@%b.0.i_0_1 .x.19) .loc.19)) (or (and .def_45 (and .loc.10 (and (= main@%x.0.i_1 0) (and (and (= main@%shadow.mem.0_0_1 .x.18) (= main@%tmp14.i_0_1 .x.20)) .def_68)))) (and (= main@%c.0.i_0_1 .x.20) (and (= main@%shadow.mem1.0_0_1 .x.18) (and (not (<= main@%b.0.i_0_1 main@%tmp14.i_0_1)) (and (= (+ main@%c.0.i_0_1 (+ main@%tmp14.i_0_1 (* (- 1) main@%tmp58.i_0))) 0) (and (or (not (<= main@%tmp58.i_0 0)) .def_84) (and (not .def_84) (and (= (+ main@%tmp14.i_0_1 (* (- 1) main@%x.0.i_1)) (- 1)) (and (and .loc.11 .def_44) (not (<= (select main@%shadow.mem1.0_0_1 main@%tmp58.i_0) (- 1))))))))))))) (and (= main@%a.0.i_0_1 .y.16) (and (not (<= .y.17 0)) (and (not (<= main@%x.0.i_1 0)) (and (not (<= .y.15 0)) (and (= .x.20 0) (and (= .y.12 0) (and (= .x.19 0) (and (and .def_44 (and .def_45 .loc.18)) .def_120))))))))) (and (= main@%tmp2.i_0_1 .y.17) (and (= @nd_char_0_2 .y.16) (and (= main@%tmp17.i_0_1 .y.15) (and (= main@%tmp14.i_0_1 main@%x.0.i_1) (and (or (not .def_134) (not .def_68)) (and (or (= @nd_char_0_2 main@%tmp58.i_0) .def_139) (and (or (= (+ main@%c.0.i_0_1 (+ main@%tmp17.i_0_1 (* (- 1) main@%tmp45.i_0))) 0) .def_145) (and (or .def_145 (or (not (<= main@%tmp45.i_0 0)) .def_149)) (and (or .def_145 (not .def_149)) (and (or .def_145 (= main@%_6_0 (store main@%shadow.mem1.0_0_1 main@%tmp45.i_0 main@%tmp24.i_0))) (and (or .def_145 (= (+ main@%c.0.i_0_1 (* (- 1) main@%tmp47.i_0)) (- 1))) (and (or (= (+ main@%b.0.i_0_1 (+ main@%tmp14.i_0_1 (* (- 1) main@%tmp37.i_0))) 0) .def_165) (and (or .def_165 (or (not (<= main@%tmp37.i_0 0)) .def_169)) (and (or .def_165 (not .def_169)) (and (or .def_165 (= main@%_5_0 (store main@%shadow.mem.0_0_1 main@%tmp37.i_0 main@%tmp24.i_0))) (and (or .def_165 (= (+ main@%b.0.i_0_1 (* (- 1) main@%tmp39.i_0)) (- 1))) (and (or .def_145 (= main@%shadow.mem.0_0_1 main@%shadow.mem.1_0)) (and (or .def_145 (= main@%b.0.i_0_1 main@%b.1.i_0)) (and (or .def_165 (= main@%shadow.mem1.0_0_1 main@%shadow.mem1.1_1)) (and (or .def_165 (= main@%c.0.i_0_1 main@%c.1.i_1)) (and (or .def_145 (= main@%shadow.mem1.1_0 .x.18)) (and (or .def_145 (= main@%shadow.mem.1_0 .y.14)) (and (or .def_145 (= main@%b.1.i_0 .x.19)) (and (or .def_145 (= main@%c.1.i_0 .x.20)) (and (or .def_165 (= main@%shadow.mem1.1_1 .x.18)) (and (or .def_165 (= main@%shadow.mem.1_1 .y.14)) (and (or .def_165 (= main@%b.1.i_1 .x.19)) (and (or .def_165 (= main@%c.1.i_1 .x.20)) (and (= (+ main@%a.0.i_0_1 (* (- 1) .y.12)) (- 1)) (and .def_120 (and .loc.18 (and .def_45 (and .loc.10 (and (or main@bb40.i_0 main@bb32.i_0) (and (or .def_145 (= main@%shadow.mem1.1_0 main@%_6_0)) (and (or .def_145 (= main@%c.1.i_0 main@%tmp47.i_0)) (and (or .def_165 (= main@%shadow.mem.1_1 main@%_5_0)) (and (or .def_165 (= main@%b.1.i_1 main@%tmp39.i_0)) (and (or main@%tmp31.i_0 (not .def_218)) (and (or .def_165 .def_218) (and (or (not .def_222) (not main@%tmp31.i_0)) (and (or .def_145 .def_222) (and (or .def_134 .def_139) (or .def_139 (= main@%tmp31.i_0 (not (<= main@%tmp24.i_0 (- 1))))))))))))))))))))))))))))))))))))))))))))))))))))))))))))))) (state |.y.12| |.y.13| |.x.18| |.y.14| |.x.19| |.x.20| |main@%x.0.i_1| |.y.15| |.y.16| |.y.17| |.loc.18| |.loc.19| |.xtv.1| |.xtv.2| |.xtv.3| |.xtv.4| |.xtv.5| |.xtv.6| |.xtv.7| |.xtv.8| |.xtv.9| |.xtv.10| |.xtv.11| |.xtv.12| |.xtv.13| |.xtv.14| |.xtv.15| |.xtv.16| |.xtv.17| |.xtv.18| |.xtv.19| |.xtv.20| |.xtv.21| |.xpv.1|))))
(assert (forall ((|main@%a.0.i_0_1| Int) (|.y.9| Int) (|main@%shadow.mem1.0_0_1| (Array Int Int)) (|main@%shadow.mem.0_0_1| (Array Int Int)) (|main@%b.0.i_0_1| Int) (|main@%c.0.i_0_1| Int) (|main@%tmp14.i_0_1| Int) (|main@%tmp17.i_0_1| Int) (|@nd_char_0_2| Int) (|main@%tmp2.i_0_1| Int) (|.loc.10| Bool) (|.loc.11| Bool) (|main@%tmp24.i_0| Int) (|main@%tmp31.i_0| Bool) (|main@bb23.i_0| Bool) (|main@bb18.i_0_0| Bool) (|main@bb40.i_0| Bool) (|main@bb32.i_0| Bool) (|main@%b.1.i_1| Int) (|main@%tmp39.i_0| Int) (|main@%shadow.mem.1_1| (Array Int Int)) (|main@%_5_0| (Array Int Int)) (|main@%c.1.i_0| Int) (|main@%tmp47.i_0| Int) (|main@%shadow.mem1.1_0| (Array Int Int)) (|main@%_6_0| (Array Int Int)) (|main@%c.1.i_1| Int) (|main@%shadow.mem1.1_1| (Array Int Int)) (|main@%b.1.i_0| Int) (|main@%shadow.mem.1_0| (Array Int Int)) (|main@%tmp37.i_0| Int) (|main@%tmp45.i_0| Int) (|main@%tmp58.i_0| Int) (|main@%tmp58.i_0_0| Int) (|.loc.18| Bool) (|.x.19| Int) (|.loc.19| Bool) (|main@%x.0.i_1| Int) (|.x.18| (Array Int Int)) (|.x.20| Int) (|.y.16| Int) (|.y.17| Int) (|.y.15| Int) (|.y.12| Int) (|.y.14| (Array Int Int)) (|.y.13| Int) (|.xtv.1| Int) (|.xtv.2| Bool) (|.xtv.3| Bool) (|.xtv.4| Bool) (|.xtv.5| Bool) (|.xtv.6| Bool) (|.xtv.7| Int) (|.xtv.8| Int) (|.xtv.9| (Array Int Int)) (|.xtv.10| (Array Int Int)) (|.xtv.11| Int) (|.xtv.12| Int) (|.xtv.13| (Array Int Int)) (|.xtv.14| (Array Int Int)) (|.xtv.15| Int) (|.xtv.16| (Array Int Int)) (|.xtv.17| Int) (|.xtv.18| (Array Int Int)) (|.xtv.19| Int) (|.xtv.20| Int) (|.xtv.21| Int) (|.xpv.1| Int)) (=> (state |main@%a.0.i_0_1| |.y.9| |main@%shadow.mem1.0_0_1| |main@%shadow.mem.0_0_1| |main@%b.0.i_0_1| |main@%c.0.i_0_1| |main@%tmp14.i_0_1| |main@%tmp17.i_0_1| |@nd_char_0_2| |main@%tmp2.i_0_1| |.loc.10| |.loc.11| |main@%tmp24.i_0| |main@%tmp31.i_0| |main@bb23.i_0| |main@bb18.i_0_0| |main@bb40.i_0| |main@bb32.i_0| |main@%b.1.i_1| |main@%tmp39.i_0| |main@%shadow.mem.1_1| |main@%_5_0| |main@%c.1.i_0| |main@%tmp47.i_0| |main@%shadow.mem1.1_0| |main@%_6_0| |main@%c.1.i_1| |main@%shadow.mem1.1_1| |main@%b.1.i_0| |main@%shadow.mem.1_0| |main@%tmp37.i_0| |main@%tmp45.i_0| |main@%tmp58.i_0| |main@%tmp58.i_0_0|) (let ((.def_84 (<= main@%c.0.i_0_1 0))) (not (and (and .loc.11 (not .loc.10)) (and (not (<= main@%b.0.i_0_1 main@%tmp14.i_0_1)) (and (and (and (not .def_84) (<= (select main@%shadow.mem1.0_0_1 main@%tmp58.i_0_0) (- 1))) (or .def_84 (not (<= main@%tmp58.i_0_0 0)))) (= (+ main@%c.0.i_0_1 (+ main@%tmp14.i_0_1 (* (- 1) main@%tmp58.i_0_0))) 0)))))))))
(check-sat)
